assignment_2/output/hhi_greedy/lambda5.0/a280_lambda5.0.tour
NAME : a280
COMMENT : Tour length 3371
TYPE : TOUR
DIMENSION : 280
TOUR_SECTION
1
280
3
279
278
277
276
275
274
273
272
271
16
17
18
19
20
21
128
127
126
125
124
123
122
121
120
119
157
158
159
160
175
161
162
163
164
165
166
167
168
172
171
170
169
101
102
103
104
108
110
111
114
115
117
118
61
60
43
42
41
40
39
38
37
50
51
52
53
54
55
56
57
58
59
44
45
46
47
48
49
36
35
34
33
32
31
30
29
28
27
26
22
25
23
24
14
13
12
11
10
8
7
9
6
5
4
260
261
262
263
264
265
266
138
269
270
268
267
137
136
135
134
133
132
131
130
129
154
155
153
156
152
151
177
176
181
182
183
184
185
187
186
190
191
192
194
197
198
199
145
146
147
148
139
149
150
178
180
179
143
144
200
201
196
195
202
203
204
205
206
208
253
254
257
258
259
256
255
252
209
210
211
214
215
218
219
222
221
220
217
216
213
212
207
251
250
249
248
247
245
246
231
232
233
234
244
243
242
241
240
239
238
237
236
235
230
229
228
227
226
225
224
223
142
141
140
193
189
188
174
173
106
105
109
89
81
113
116
86
85
87
88
112
90
91
92
99
100
98
97
96
95
94
93
80
79
82
83
84
65
64
68
69
70
71
72
73
74
75
77
78
76
66
67
63
62
107
15
2
1
-1
EOF